data/mps_files/pEFS/42_8.mps
NAME foo
ROWS
 N  OBJ
 E  allocateEach[1]
 E  allocateEach[2]
 E  allocateAllCash
 G  findWorstP[1,2]
 G  findWorstP[1,3]
 G  findWorstP[2,1]
 G  findWorstP[2,3]
 G  findWorstP[3,1]
 G  findWorstP[3,2]
COLUMNS
    z         OBJ       1
    z         findWorstP[1,2]  1
    z         findWorstP[1,3]  1
    z         findWorstP[2,1]  1
    z         findWorstP[2,3]  1
    z         findWorstP[3,1]  1
    z         findWorstP[3,2]  1
    cashProportion[1]  allocateAllCash  1
    cashProportion[1]  findWorstP[1,2]  5.9053665018085189e-01
    cashProportion[1]  findWorstP[1,3]  5.9053665018085189e-01
    cashProportion[1]  findWorstP[2,1]  -3.7086829539659733e-01
    cashProportion[1]  findWorstP[3,1]  -4.7672963470591745e-01
    cashProportion[2]  allocateAllCash  1
    cashProportion[2]  findWorstP[1,2]  -5.9053665018085189e-01
    cashProportion[2]  findWorstP[2,1]  3.7086829539659733e-01
    cashProportion[2]  findWorstP[2,3]  3.7086829539659733e-01
    cashProportion[2]  findWorstP[3,2]  -4.7672963470591745e-01
    cashProportion[3]  allocateAllCash  1
    cashProportion[3]  findWorstP[1,3]  -5.9053665018085189e-01
    cashProportion[3]  findWorstP[2,3]  -3.7086829539659733e-01
    cashProportion[3]  findWorstP[3,1]  4.7672963470591745e-01
    cashProportion[3]  findWorstP[3,2]  4.7672963470591745e-01
    MARKER    'MARKER'                 'INTORG'
    x[1,1]    allocateEach[1]  1
    x[1,1]    findWorstP[1,2]  2.6670111463792717e-01
    x[1,1]    findWorstP[1,3]  2.6670111463792717e-01
    x[1,1]    findWorstP[2,1]  -1.6934773538547124e-01
    x[1,1]    findWorstP[3,1]  -1.4957392288898157e-02
    x[1,2]    allocateEach[2]  1
    x[1,2]    findWorstP[1,2]  1.4276223518122089e-01
    x[1,2]    findWorstP[1,3]  1.4276223518122089e-01
    x[1,2]    findWorstP[2,1]  -4.5978396921793147e-01
    x[1,2]    findWorstP[3,1]  -5.0831297300518430e-01
    x[2,1]    allocateEach[1]  1
    x[2,1]    findWorstP[1,2]  -2.6670111463792717e-01
    x[2,1]    findWorstP[2,1]  1.6934773538547124e-01
    x[2,1]    findWorstP[2,3]  1.6934773538547124e-01
    x[2,1]    findWorstP[3,2]  -1.4957392288898157e-02
    x[2,2]    allocateEach[2]  1
    x[2,2]    findWorstP[1,2]  -1.4276223518122089e-01
    x[2,2]    findWorstP[2,1]  4.5978396921793147e-01
    x[2,2]    findWorstP[2,3]  4.5978396921793147e-01
    x[2,2]    findWorstP[3,2]  -5.0831297300518430e-01
    x[3,1]    allocateEach[1]  1
    x[3,1]    findWorstP[1,3]  -2.6670111463792717e-01
    x[3,1]    findWorstP[2,3]  -1.6934773538547124e-01
    x[3,1]    findWorstP[3,1]  1.4957392288898157e-02
    x[3,1]    findWorstP[3,2]  1.4957392288898157e-02
    x[3,2]    allocateEach[2]  1
    x[3,2]    findWorstP[1,3]  -1.4276223518122089e-01
    x[3,2]    findWorstP[2,3]  -4.5978396921793147e-01
    x[3,2]    findWorstP[3,1]  5.0831297300518430e-01
    x[3,2]    findWorstP[3,2]  5.0831297300518430e-01
    MARKER    'MARKER'                 'INTEND'
RHS
    RHS1      allocateEach[1]  1
    RHS1      allocateEach[2]  1
    RHS1      allocateAllCash  1
BOUNDS
 UP BND1      z         1
 MI BND1      cashProportion[1]
 UP BND1      cashProportion[1]  1
 MI BND1      cashProportion[2]
 UP BND1      cashProportion[2]  1
 MI BND1      cashProportion[3]
 UP BND1      cashProportion[3]  1
 BV BND1      x[1,1]  
 BV BND1      x[1,2]  
 BV BND1      x[2,1]  
 BV BND1      x[2,2]  
 BV BND1      x[3,1]  
 BV BND1      x[3,2]  
ENDATA
